instances/knapsack/discrete_knapsack_uncertainty/knapsack_60_18.mps
* Signature: 0x44a844bc7146bef8
NAME knapsack_60_18
ROWS
 N  OBJ
 L  primal_upper
 L  primal_lower
 L  mccormick1[0]
 L  mccormick1[1]
 L  mccormick1[2]
 L  mccormick1[3]
 L  mccormick1[4]
 L  mccormick1[5]
 L  mccormick1[6]
 L  mccormick1[7]
 L  mccormick1[8]
 L  mccormick1[9]
 L  mccormick1[10]
 L  mccormick1[11]
 L  mccormick1[12]
 L  mccormick1[13]
 L  mccormick1[14]
 L  mccormick1[15]
 L  mccormick1[16]
 L  mccormick1[17]
 L  mccormick1[18]
 L  mccormick1[19]
 L  mccormick1[20]
 L  mccormick1[21]
 L  mccormick1[22]
 L  mccormick1[23]
 L  mccormick1[24]
 L  mccormick1[25]
 L  mccormick1[26]
 L  mccormick1[27]
 L  mccormick1[28]
 L  mccormick1[29]
 L  mccormick1[30]
 L  mccormick1[31]
 L  mccormick1[32]
 L  mccormick1[33]
 L  mccormick1[34]
 L  mccormick1[35]
 L  mccormick1[36]
 L  mccormick1[37]
 L  mccormick1[38]
 L  mccormick1[39]
 L  mccormick1[40]
 L  mccormick1[41]
 L  mccormick1[42]
 L  mccormick1[43]
 L  mccormick1[44]
 L  mccormick1[45]
 L  mccormick1[46]
 L  mccormick1[47]
 L  mccormick1[48]
 L  mccormick1[49]
 L  mccormick1[50]
 L  mccormick1[51]
 L  mccormick1[52]
 L  mccormick1[53]
 L  mccormick1[54]
 L  mccormick1[55]
 L  mccormick1[56]
 L  mccormick1[57]
 L  mccormick1[58]
 L  mccormick1[59]
 L  mccormick2[0]
 L  mccormick2[1]
 L  mccormick2[2]
 L  mccormick2[3]
 L  mccormick2[4]
 L  mccormick2[5]
 L  mccormick2[6]
 L  mccormick2[7]
 L  mccormick2[8]
 L  mccormick2[9]
 L  mccormick2[10]
 L  mccormick2[11]
 L  mccormick2[12]
 L  mccormick2[13]
 L  mccormick2[14]
 L  mccormick2[15]
 L  mccormick2[16]
 L  mccormick2[17]
 L  mccormick2[18]
 L  mccormick2[19]
 L  mccormick2[20]
 L  mccormick2[21]
 L  mccormick2[22]
 L  mccormick2[23]
 L  mccormick2[24]
 L  mccormick2[25]
 L  mccormick2[26]
 L  mccormick2[27]
 L  mccormick2[28]
 L  mccormick2[29]
 L  mccormick2[30]
 L  mccormick2[31]
 L  mccormick2[32]
 L  mccormick2[33]
 L  mccormick2[34]
 L  mccormick2[35]
 L  mccormick2[36]
 L  mccormick2[37]
 L  mccormick2[38]
 L  mccormick2[39]
 L  mccormick2[40]
 L  mccormick2[41]
 L  mccormick2[42]
 L  mccormick2[43]
 L  mccormick2[44]
 L  mccormick2[45]
 L  mccormick2[46]
 L  mccormick2[47]
 L  mccormick2[48]
 L  mccormick2[49]
 L  mccormick2[50]
 L  mccormick2[51]
 L  mccormick2[52]
 L  mccormick2[53]
 L  mccormick2[54]
 L  mccormick2[55]
 L  mccormick2[56]
 L  mccormick2[57]
 L  mccormick2[58]
 L  mccormick2[59]
 L  mccormick3[0]
 L  mccormick3[1]
 L  mccormick3[2]
 L  mccormick3[3]
 L  mccormick3[4]
 L  mccormick3[5]
 L  mccormick3[6]
 L  mccormick3[7]
 L  mccormick3[8]
 L  mccormick3[9]
 L  mccormick3[10]
 L  mccormick3[11]
 L  mccormick3[12]
 L  mccormick3[13]
 L  mccormick3[14]
 L  mccormick3[15]
 L  mccormick3[16]
 L  mccormick3[17]
 L  mccormick3[18]
 L  mccormick3[19]
 L  mccormick3[20]
 L  mccormick3[21]
 L  mccormick3[22]
 L  mccormick3[23]
 L  mccormick3[24]
 L  mccormick3[25]
 L  mccormick3[26]
 L  mccormick3[27]
 L  mccormick3[28]
 L  mccormick3[29]
 L  mccormick3[30]
 L  mccormick3[31]
 L  mccormick3[32]
 L  mccormick3[33]
 L  mccormick3[34]
 L  mccormick3[35]
 L  mccormick3[36]
 L  mccormick3[37]
 L  mccormick3[38]
 L  mccormick3[39]
 L  mccormick3[40]
 L  mccormick3[41]
 L  mccormick3[42]
 L  mccormick3[43]
 L  mccormick3[44]
 L  mccormick3[45]
 L  mccormick3[46]
 L  mccormick3[47]
 L  mccormick3[48]
 L  mccormick3[49]
 L  mccormick3[50]
 L  mccormick3[51]
 L  mccormick3[52]
 L  mccormick3[53]
 L  mccormick3[54]
 L  mccormick3[55]
 L  mccormick3[56]
 L  mccormick3[57]
 L  mccormick3[58]
 L  mccormick3[59]
COLUMNS
    MARKER    'MARKER'                 'INTORG'
    x[0]      OBJ       -76
    x[0]      primal_upper  26
    x[0]      primal_lower  2.0439047061984064e+00
    x[0]      mccormick2[0]  -1
    x[0]      mccormick3[0]  1
    x[1]      OBJ       -5
    x[1]      primal_upper  46
    x[1]      primal_lower  2.3503521016180557e+00
    x[1]      mccormick2[1]  -1
    x[1]      mccormick3[1]  1
    x[2]      OBJ       -90
    x[2]      primal_upper  32
    x[2]      primal_lower  4.0627931144335152e+00
    x[2]      mccormick2[2]  -1
    x[2]      mccormick3[2]  1
    x[3]      OBJ       -74
    x[3]      primal_upper  93
    x[3]      primal_lower  3.3533094048576291e+00
    x[3]      mccormick2[3]  -1
    x[3]      mccormick3[3]  1
    x[4]      OBJ       -36
    x[4]      primal_upper  86
    x[4]      primal_lower  3.7578347883861536e+00
    x[4]      mccormick2[4]  -1
    x[4]      mccormick3[4]  1
    x[5]      OBJ       -75
    x[5]      primal_upper  100
    x[5]      primal_lower  2.0665788582057778e+00
    x[5]      mccormick2[5]  -1
    x[5]      mccormick3[5]  1
    x[6]      OBJ       -48
    x[6]      primal_upper  39
    x[6]      primal_lower  1.5929129213494848e+00
    x[6]      mccormick2[6]  -1
    x[6]      mccormick3[6]  1
    x[7]      OBJ       -74
    x[7]      primal_upper  78
    x[7]      primal_lower  2.6432783452534383e+00
    x[7]      mccormick2[7]  -1
    x[7]      mccormick3[7]  1
    x[8]      OBJ       -57
    x[8]      primal_upper  59
    x[8]      primal_lower  7.8945391257751452e-01
    x[8]      mccormick2[8]  -1
    x[8]      mccormick3[8]  1
    x[9]      OBJ       -13
    x[9]      primal_upper  92
    x[9]      primal_lower  5.3284696821589306e-01
    x[9]      mccormick2[9]  -1
    x[9]      mccormick3[9]  1
    x[10]     OBJ       -53
    x[10]     primal_upper  86
    x[10]     primal_lower  3.5005591689760034e+00
    x[10]     mccormick2[10]  -1
    x[10]     mccormick3[10]  1
    x[11]     OBJ       -45
    x[11]     primal_upper  57
    x[11]     primal_lower  4.7830102282271767e+00
    x[11]     mccormick2[11]  -1
    x[11]     mccormick3[11]  1
    x[12]     OBJ       -97
    x[12]     primal_upper  78
    x[12]     primal_lower  2.1132188222848804e+00
    x[12]     mccormick2[12]  -1
    x[12]     mccormick3[12]  1
    x[13]     OBJ       -28
    x[13]     primal_upper  54
    x[13]     primal_lower  6.2401584745014094e-01
    x[13]     mccormick2[13]  -1
    x[13]     mccormick3[13]  1
    x[14]     OBJ       -45
    x[14]     primal_upper  27
    x[14]     primal_lower  1.5232057649885831e+00
    x[14]     mccormick2[14]  -1
    x[14]     mccormick3[14]  1
    x[15]     OBJ       -34
    x[15]     primal_upper  35
    x[15]     primal_lower  3.4292863967674871e+00
    x[15]     mccormick2[15]  -1
    x[15]     mccormick3[15]  1
    x[16]     OBJ       -64
    x[16]     primal_upper  63
    x[16]     primal_lower  3.8897644412483685e+00
    x[16]     mccormick2[16]  -1
    x[16]     mccormick3[16]  1
    x[17]     OBJ       -48
    x[17]     primal_upper  62
    x[17]     primal_lower  2.1024940327689037e+00
    x[17]     mccormick2[17]  -1
    x[17]     mccormick3[17]  1
    x[18]     OBJ       -49
    x[18]     primal_upper  71
    x[18]     primal_lower  4.0808480132047631e+00
    x[18]     mccormick2[18]  -1
    x[18]     mccormick3[18]  1
    x[19]     OBJ       -100
    x[19]     primal_upper  88
    x[19]     primal_lower  3.1781619977400304e+00
    x[19]     mccormick2[19]  -1
    x[19]     mccormick3[19]  1
    x[20]     OBJ       -92
    x[20]     primal_upper  3
    x[20]     primal_lower  2.1430121136589775e+00
    x[20]     mccormick2[20]  -1
    x[20]     mccormick3[20]  1
    x[21]     OBJ       -77
    x[21]     primal_upper  94
    x[21]     primal_lower  6.0858452971794119e-01
    x[21]     mccormick2[21]  -1
    x[21]     mccormick3[21]  1
    x[22]     OBJ       -94
    x[22]     primal_upper  42
    x[22]     primal_lower  2.7608727118713694e+00
    x[22]     mccormick2[22]  -1
    x[22]     mccormick3[22]  1
    x[23]     OBJ       -54
    x[23]     primal_upper  45
    x[23]     primal_lower  1.2079484636058773e+00
    x[23]     mccormick2[23]  -1
    x[23]     mccormick3[23]  1
    x[24]     OBJ       -95
    x[24]     primal_upper  3
    x[24]     primal_lower  1.9584656565574490e+00
    x[24]     mccormick2[24]  -1
    x[24]     mccormick3[24]  1
    x[25]     OBJ       -89
    x[25]     primal_upper  14
    x[25]     primal_lower  3.0589760409334175e+00
    x[25]     mccormick2[25]  -1
    x[25]     mccormick3[25]  1
    x[26]     OBJ       -74
    x[26]     primal_upper  44
    x[26]     primal_lower  2.7960937997459241e+00
    x[26]     mccormick2[26]  -1
    x[26]     mccormick3[26]  1
    x[27]     OBJ       -90
    x[27]     primal_upper  46
    x[27]     primal_lower  4.3977605015507839e+00
    x[27]     mccormick2[27]  -1
    x[27]     mccormick3[27]  1
    x[28]     OBJ       -12
    x[28]     primal_upper  84
    x[28]     primal_lower  3.0395918716775538e+00
    x[28]     mccormick2[28]  -1
    x[28]     mccormick3[28]  1
    x[29]     OBJ       -31
    x[29]     primal_upper  53
    x[29]     primal_lower  3.4472425042710295e+00
    x[29]     mccormick2[29]  -1
    x[29]     mccormick3[29]  1
    x[30]     OBJ       -59
    x[30]     primal_upper  4
    x[30]     primal_lower  3.9618898007959311e+00
    x[30]     mccormick2[30]  -1
    x[30]     mccormick3[30]  1
    x[31]     OBJ       -54
    x[31]     primal_upper  30
    x[31]     primal_lower  4.0666030123276418e+00
    x[31]     mccormick2[31]  -1
    x[31]     mccormick3[31]  1
    x[32]     OBJ       -38
    x[32]     primal_upper  42
    x[32]     primal_lower  4.6940659673102036e+00
    x[32]     mccormick2[32]  -1
    x[32]     mccormick3[32]  1
    x[33]     OBJ       -81
    x[33]     primal_upper  23
    x[33]     primal_lower  3.0453930500519255e+00
    x[33]     mccormick2[33]  -1
    x[33]     mccormick3[33]  1
    x[34]     OBJ       -42
    x[34]     primal_upper  74
    x[34]     primal_lower  1.4303744971868044e+00
    x[34]     mccormick2[34]  -1
    x[34]     mccormick3[34]  1
    x[35]     OBJ       -23
    x[35]     primal_upper  27
    x[35]     primal_lower  3.3568267966050009e+00
    x[35]     mccormick2[35]  -1
    x[35]     mccormick3[35]  1
    x[36]     OBJ       -31
    x[36]     primal_upper  58
    x[36]     primal_lower  4.7500822380708261e+00
    x[36]     mccormick2[36]  -1
    x[36]     mccormick3[36]  1
    x[37]     OBJ       -97
    x[37]     primal_upper  15
    x[37]     primal_lower  8.9396569055416053e-01
    x[37]     mccormick2[37]  -1
    x[37]     mccormick3[37]  1
    x[38]     OBJ       -37
    x[38]     primal_upper  50
    x[38]     primal_lower  2.7441154458448191e+00
    x[38]     mccormick2[38]  -1
    x[38]     mccormick3[38]  1
    x[39]     OBJ       -6
    x[39]     primal_upper  37
    x[39]     primal_lower  1.8935305883299853e+00
    x[39]     mccormick2[39]  -1
    x[39]     mccormick3[39]  1
    x[40]     OBJ       -66
    x[40]     primal_upper  17
    x[40]     primal_lower  1.7126428760540631e+00
    x[40]     mccormick2[40]  -1
    x[40]     mccormick3[40]  1
    x[41]     OBJ       -40
    x[41]     primal_upper  88
    x[41]     primal_lower  4.8092600056798174e-01
    x[41]     mccormick2[41]  -1
    x[41]     mccormick3[41]  1
    x[42]     OBJ       -8
    x[42]     primal_upper  72
    x[42]     primal_lower  8.8454603762572415e-01
    x[42]     mccormick2[42]  -1
    x[42]     mccormick3[42]  1
    x[43]     OBJ       -1
    x[43]     primal_upper  100
    x[43]     primal_lower  2.6328861244059163e+00
    x[43]     mccormick2[43]  -1
    x[43]     mccormick3[43]  1
    x[44]     OBJ       -25
    x[44]     primal_upper  85
    x[44]     primal_lower  3.9547302065032506e+00
    x[44]     mccormick2[44]  -1
    x[44]     mccormick3[44]  1
    x[45]     OBJ       -49
    x[45]     primal_upper  25
    x[45]     primal_lower  0.0810250492163858
    x[45]     mccormick2[45]  -1
    x[45]     mccormick3[45]  1
    x[46]     OBJ       -87
    x[46]     primal_upper  64
    x[46]     primal_lower  1.5656774365845074e+00
    x[46]     mccormick2[46]  -1
    x[46]     mccormick3[46]  1
    x[47]     OBJ       -31
    x[47]     primal_upper  84
    x[47]     primal_lower  2.7506697910190070e+00
    x[47]     mccormick2[47]  -1
    x[47]     mccormick3[47]  1
    x[48]     OBJ       -87
    x[48]     primal_upper  49
    x[48]     primal_lower  2.8055889325502097e+00
    x[48]     mccormick2[48]  -1
    x[48]     mccormick3[48]  1
    x[49]     OBJ       -32
    x[49]     primal_upper  6
    x[49]     primal_lower  3.5786500607257263e+00
    x[49]     mccormick2[49]  -1
    x[49]     mccormick3[49]  1
    x[50]     OBJ       -33
    x[50]     primal_upper  33
    x[50]     primal_lower  3.85424217656708
    x[50]     mccormick2[50]  -1
    x[50]     mccormick3[50]  1
    x[51]     OBJ       -25
    x[51]     primal_upper  2
    x[51]     primal_lower  1.2070268624211450e-01
    x[51]     mccormick2[51]  -1
    x[51]     mccormick3[51]  1
    x[52]     OBJ       -53
    x[52]     primal_upper  71
    x[52]     primal_lower  4.2549715675332385e+00
    x[52]     mccormick2[52]  -1
    x[52]     mccormick3[52]  1
    x[53]     OBJ       -55
    x[53]     primal_upper  54
    x[53]     primal_lower  2.7582819191193435e+00
    x[53]     mccormick2[53]  -1
    x[53]     mccormick3[53]  1
    x[54]     OBJ       -62
    x[54]     primal_upper  11
    x[54]     primal_lower  1.3306536869177166e+00
    x[54]     mccormick2[54]  -1
    x[54]     mccormick3[54]  1
    x[55]     OBJ       -20
    x[55]     primal_upper  6
    x[55]     primal_lower  4.1129556878462309e-01
    x[55]     mccormick2[55]  -1
    x[55]     mccormick3[55]  1
    x[56]     OBJ       -97
    x[56]     primal_upper  87
    x[56]     primal_lower  3.2746106160135038e+00
    x[56]     mccormick2[56]  -1
    x[56]     mccormick3[56]  1
    x[57]     OBJ       -98
    x[57]     primal_upper  29
    x[57]     primal_lower  1.9560908489876605e+00
    x[57]     mccormick2[57]  -1
    x[57]     mccormick3[57]  1
    x[58]     OBJ       -82
    x[58]     primal_upper  62
    x[58]     primal_lower  4.3971964607431051e+00
    x[58]     mccormick2[58]  -1
    x[58]     mccormick3[58]  1
    x[59]     OBJ       -29
    x[59]     primal_upper  4
    x[59]     primal_lower  1.3031324807703546e+00
    x[59]     mccormick2[59]  -1
    x[59]     mccormick3[59]  1
    u[0]      primal_lower  47
    u[0]      mccormick1[0]  -1
    u[0]      mccormick3[0]  1
    u[1]      primal_lower  23
    u[1]      mccormick1[1]  -1
    u[1]      mccormick3[1]  1
    u[2]      primal_lower  49
    u[2]      mccormick1[2]  -1
    u[2]      mccormick3[2]  1
    u[3]      primal_lower  34
    u[3]      mccormick1[3]  -1
    u[3]      mccormick3[3]  1
    u[4]      primal_lower  59
    u[4]      mccormick1[4]  -1
    u[4]      mccormick3[4]  1
    u[5]      primal_lower  73
    u[5]      mccormick1[5]  -1
    u[5]      mccormick3[5]  1
    u[6]      primal_lower  68
    u[6]      mccormick1[6]  -1
    u[6]      mccormick3[6]  1
    u[7]      primal_lower  71
    u[7]      mccormick1[7]  -1
    u[7]      mccormick3[7]  1
    u[8]      primal_lower  36
    u[8]      mccormick1[8]  -1
    u[8]      mccormick3[8]  1
    u[9]      primal_lower  33
    u[9]      mccormick1[9]  -1
    u[9]      mccormick3[9]  1
    u[10]     primal_lower  83
    u[10]     mccormick1[10]  -1
    u[10]     mccormick3[10]  1
    u[11]     primal_lower  62
    u[11]     mccormick1[11]  -1
    u[11]     mccormick3[11]  1
    u[12]     primal_lower  23
    u[12]     mccormick1[12]  -1
    u[12]     mccormick3[12]  1
    u[13]     primal_lower  11
    u[13]     mccormick1[13]  -1
    u[13]     mccormick3[13]  1
    u[14]     primal_lower  28
    u[14]     mccormick1[14]  -1
    u[14]     mccormick3[14]  1
    u[15]     primal_lower  48
    u[15]     mccormick1[15]  -1
    u[15]     mccormick3[15]  1
    u[16]     primal_lower  80
    u[16]     mccormick1[16]  -1
    u[16]     mccormick3[16]  1
    u[17]     primal_lower  23
    u[17]     mccormick1[17]  -1
    u[17]     mccormick3[17]  1
    u[18]     primal_lower  64
    u[18]     mccormick1[18]  -1
    u[18]     mccormick3[18]  1
    u[19]     primal_lower  45
    u[19]     mccormick1[19]  -1
    u[19]     mccormick3[19]  1
    u[20]     primal_lower  48
    u[20]     mccormick1[20]  -1
    u[20]     mccormick3[20]  1
    u[21]     primal_lower  43
    u[21]     mccormick1[21]  -1
    u[21]     mccormick3[21]  1
    u[22]     primal_lower  75
    u[22]     mccormick1[22]  -1
    u[22]     mccormick3[22]  1
    u[23]     primal_lower  38
    u[23]     mccormick1[23]  -1
    u[23]     mccormick3[23]  1
    u[24]     primal_lower  32
    u[24]     mccormick1[24]  -1
    u[24]     mccormick3[24]  1
    u[25]     primal_lower  11
    u[25]     mccormick1[25]  -1
    u[25]     mccormick3[25]  1
    u[26]     primal_lower  77
    u[26]     mccormick1[26]  -1
    u[26]     mccormick3[26]  1
    u[27]     primal_lower  71
    u[27]     mccormick1[27]  -1
    u[27]     mccormick3[27]  1
    u[28]     primal_lower  9
    u[28]     mccormick1[28]  -1
    u[28]     mccormick3[28]  1
    u[29]     primal_lower  34
    u[29]     mccormick1[29]  -1
    u[29]     mccormick3[29]  1
    u[30]     primal_lower  49
    u[30]     mccormick1[30]  -1
    u[30]     mccormick3[30]  1
    u[31]     primal_lower  47
    u[31]     mccormick1[31]  -1
    u[31]     mccormick3[31]  1
    u[32]     primal_lower  11
    u[32]     mccormick1[32]  -1
    u[32]     mccormick3[32]  1
    u[33]     primal_lower  68
    u[33]     mccormick1[33]  -1
    u[33]     mccormick3[33]  1
    u[34]     primal_lower  75
    u[34]     mccormick1[34]  -1
    u[34]     mccormick3[34]  1
    u[35]     primal_lower  100
    u[35]     mccormick1[35]  -1
    u[35]     mccormick3[35]  1
    u[36]     primal_lower  47
    u[36]     mccormick1[36]  -1
    u[36]     mccormick3[36]  1
    u[37]     primal_lower  76
    u[37]     mccormick1[37]  -1
    u[37]     mccormick3[37]  1
    u[38]     primal_lower  79
    u[38]     mccormick1[38]  -1
    u[38]     mccormick3[38]  1
    u[39]     primal_lower  70
    u[39]     mccormick1[39]  -1
    u[39]     mccormick3[39]  1
    u[40]     primal_lower  50
    u[40]     mccormick1[40]  -1
    u[40]     mccormick3[40]  1
    u[41]     primal_lower  1
    u[41]     mccormick1[41]  -1
    u[41]     mccormick3[41]  1
    u[42]     primal_lower  81
    u[42]     mccormick1[42]  -1
    u[42]     mccormick3[42]  1
    u[43]     primal_lower  57
    u[43]     mccormick1[43]  -1
    u[43]     mccormick3[43]  1
    u[44]     primal_lower  50
    u[44]     mccormick1[44]  -1
    u[44]     mccormick3[44]  1
    u[45]     primal_lower  66
    u[45]     mccormick1[45]  -1
    u[45]     mccormick3[45]  1
    u[46]     primal_lower  57
    u[46]     mccormick1[46]  -1
    u[46]     mccormick3[46]  1
    u[47]     primal_lower  89
    u[47]     mccormick1[47]  -1
    u[47]     mccormick3[47]  1
    u[48]     primal_lower  38
    u[48]     mccormick1[48]  -1
    u[48]     mccormick3[48]  1
    u[49]     primal_lower  31
    u[49]     mccormick1[49]  -1
    u[49]     mccormick3[49]  1
    u[50]     primal_lower  42
    u[50]     mccormick1[50]  -1
    u[50]     mccormick3[50]  1
    u[51]     primal_lower  51
    u[51]     mccormick1[51]  -1
    u[51]     mccormick3[51]  1
    u[52]     primal_lower  56
    u[52]     mccormick1[52]  -1
    u[52]     mccormick3[52]  1
    u[53]     primal_lower  47
    u[53]     mccormick1[53]  -1
    u[53]     mccormick3[53]  1
    u[54]     primal_lower  12
    u[54]     mccormick1[54]  -1
    u[54]     mccormick3[54]  1
    u[55]     primal_lower  27
    u[55]     mccormick1[55]  -1
    u[55]     mccormick3[55]  1
    u[56]     primal_lower  80
    u[56]     mccormick1[56]  -1
    u[56]     mccormick3[56]  1
    u[57]     primal_lower  90
    u[57]     mccormick1[57]  -1
    u[57]     mccormick3[57]  1
    u[58]     primal_lower  83
    u[58]     mccormick1[58]  -1
    u[58]     mccormick3[58]  1
    u[59]     primal_lower  1
    u[59]     mccormick1[59]  -1
    u[59]     mccormick3[59]  1
    r[0]      primal_upper  2.6
    r[0]      mccormick1[0]  1
    r[0]      mccormick2[0]  1
    r[0]      mccormick3[0]  -1
    r[1]      primal_upper  4.6
    r[1]      mccormick1[1]  1
    r[1]      mccormick2[1]  1
    r[1]      mccormick3[1]  -1
    r[2]      primal_upper  3.2
    r[2]      mccormick1[2]  1
    r[2]      mccormick2[2]  1
    r[2]      mccormick3[2]  -1
    r[3]      primal_upper  9.3
    r[3]      mccormick1[3]  1
    r[3]      mccormick2[3]  1
    r[3]      mccormick3[3]  -1
    r[4]      primal_upper  8.6
    r[4]      mccormick1[4]  1
    r[4]      mccormick2[4]  1
    r[4]      mccormick3[4]  -1
    r[5]      primal_upper  10
    r[5]      mccormick1[5]  1
    r[5]      mccormick2[5]  1
    r[5]      mccormick3[5]  -1
    r[6]      primal_upper  3.9
    r[6]      mccormick1[6]  1
    r[6]      mccormick2[6]  1
    r[6]      mccormick3[6]  -1
    r[7]      primal_upper  7.8
    r[7]      mccormick1[7]  1
    r[7]      mccormick2[7]  1
    r[7]      mccormick3[7]  -1
    r[8]      primal_upper  5.9
    r[8]      mccormick1[8]  1
    r[8]      mccormick2[8]  1
    r[8]      mccormick3[8]  -1
    r[9]      primal_upper  9.2
    r[9]      mccormick1[9]  1
    r[9]      mccormick2[9]  1
    r[9]      mccormick3[9]  -1
    r[10]     primal_upper  8.6
    r[10]     mccormick1[10]  1
    r[10]     mccormick2[10]  1
    r[10]     mccormick3[10]  -1
    r[11]     primal_upper  5.7
    r[11]     mccormick1[11]  1
    r[11]     mccormick2[11]  1
    r[11]     mccormick3[11]  -1
    r[12]     primal_upper  7.8
    r[12]     mccormick1[12]  1
    r[12]     mccormick2[12]  1
    r[12]     mccormick3[12]  -1
    r[13]     primal_upper  5.4
    r[13]     mccormick1[13]  1
    r[13]     mccormick2[13]  1
    r[13]     mccormick3[13]  -1
    r[14]     primal_upper  2.7
    r[14]     mccormick1[14]  1
    r[14]     mccormick2[14]  1
    r[14]     mccormick3[14]  -1
    r[15]     primal_upper  3.5
    r[15]     mccormick1[15]  1
    r[15]     mccormick2[15]  1
    r[15]     mccormick3[15]  -1
    r[16]     primal_upper  6.3
    r[16]     mccormick1[16]  1
    r[16]     mccormick2[16]  1
    r[16]     mccormick3[16]  -1
    r[17]     primal_upper  6.2
    r[17]     mccormick1[17]  1
    r[17]     mccormick2[17]  1
    r[17]     mccormick3[17]  -1
    r[18]     primal_upper  7.1
    r[18]     mccormick1[18]  1
    r[18]     mccormick2[18]  1
    r[18]     mccormick3[18]  -1
    r[19]     primal_upper  8.8
    r[19]     mccormick1[19]  1
    r[19]     mccormick2[19]  1
    r[19]     mccormick3[19]  -1
    r[20]     primal_upper  0.3
    r[20]     mccormick1[20]  1
    r[20]     mccormick2[20]  1
    r[20]     mccormick3[20]  -1
    r[21]     primal_upper  9.4
    r[21]     mccormick1[21]  1
    r[21]     mccormick2[21]  1
    r[21]     mccormick3[21]  -1
    r[22]     primal_upper  4.2
    r[22]     mccormick1[22]  1
    r[22]     mccormick2[22]  1
    r[22]     mccormick3[22]  -1
    r[23]     primal_upper  4.5
    r[23]     mccormick1[23]  1
    r[23]     mccormick2[23]  1
    r[23]     mccormick3[23]  -1
    r[24]     primal_upper  0.3
    r[24]     mccormick1[24]  1
    r[24]     mccormick2[24]  1
    r[24]     mccormick3[24]  -1
    r[25]     primal_upper  1.4
    r[25]     mccormick1[25]  1
    r[25]     mccormick2[25]  1
    r[25]     mccormick3[25]  -1
    r[26]     primal_upper  4.4
    r[26]     mccormick1[26]  1
    r[26]     mccormick2[26]  1
    r[26]     mccormick3[26]  -1
    r[27]     primal_upper  4.6
    r[27]     mccormick1[27]  1
    r[27]     mccormick2[27]  1
    r[27]     mccormick3[27]  -1
    r[28]     primal_upper  8.4
    r[28]     mccormick1[28]  1
    r[28]     mccormick2[28]  1
    r[28]     mccormick3[28]  -1
    r[29]     primal_upper  5.3
    r[29]     mccormick1[29]  1
    r[29]     mccormick2[29]  1
    r[29]     mccormick3[29]  -1
    r[30]     primal_upper  0.4
    r[30]     mccormick1[30]  1
    r[30]     mccormick2[30]  1
    r[30]     mccormick3[30]  -1
    r[31]     primal_upper  3
    r[31]     mccormick1[31]  1
    r[31]     mccormick2[31]  1
    r[31]     mccormick3[31]  -1
    r[32]     primal_upper  4.2
    r[32]     mccormick1[32]  1
    r[32]     mccormick2[32]  1
    r[32]     mccormick3[32]  -1
    r[33]     primal_upper  2.3
    r[33]     mccormick1[33]  1
    r[33]     mccormick2[33]  1
    r[33]     mccormick3[33]  -1
    r[34]     primal_upper  7.4
    r[34]     mccormick1[34]  1
    r[34]     mccormick2[34]  1
    r[34]     mccormick3[34]  -1
    r[35]     primal_upper  2.7
    r[35]     mccormick1[35]  1
    r[35]     mccormick2[35]  1
    r[35]     mccormick3[35]  -1
    r[36]     primal_upper  5.8
    r[36]     mccormick1[36]  1
    r[36]     mccormick2[36]  1
    r[36]     mccormick3[36]  -1
    r[37]     primal_upper  1.5
    r[37]     mccormick1[37]  1
    r[37]     mccormick2[37]  1
    r[37]     mccormick3[37]  -1
    r[38]     primal_upper  5
    r[38]     mccormick1[38]  1
    r[38]     mccormick2[38]  1
    r[38]     mccormick3[38]  -1
    r[39]     primal_upper  3.7
    r[39]     mccormick1[39]  1
    r[39]     mccormick2[39]  1
    r[39]     mccormick3[39]  -1
    r[40]     primal_upper  1.7
    r[40]     mccormick1[40]  1
    r[40]     mccormick2[40]  1
    r[40]     mccormick3[40]  -1
    r[41]     primal_upper  8.8
    r[41]     mccormick1[41]  1
    r[41]     mccormick2[41]  1
    r[41]     mccormick3[41]  -1
    r[42]     primal_upper  7.2
    r[42]     mccormick1[42]  1
    r[42]     mccormick2[42]  1
    r[42]     mccormick3[42]  -1
    r[43]     primal_upper  10
    r[43]     mccormick1[43]  1
    r[43]     mccormick2[43]  1
    r[43]     mccormick3[43]  -1
    r[44]     primal_upper  8.5
    r[44]     mccormick1[44]  1
    r[44]     mccormick2[44]  1
    r[44]     mccormick3[44]  -1
    r[45]     primal_upper  2.5
    r[45]     mccormick1[45]  1
    r[45]     mccormick2[45]  1
    r[45]     mccormick3[45]  -1
    r[46]     primal_upper  6.4
    r[46]     mccormick1[46]  1
    r[46]     mccormick2[46]  1
    r[46]     mccormick3[46]  -1
    r[47]     primal_upper  8.4
    r[47]     mccormick1[47]  1
    r[47]     mccormick2[47]  1
    r[47]     mccormick3[47]  -1
    r[48]     primal_upper  4.9
    r[48]     mccormick1[48]  1
    r[48]     mccormick2[48]  1
    r[48]     mccormick3[48]  -1
    r[49]     primal_upper  0.6
    r[49]     mccormick1[49]  1
    r[49]     mccormick2[49]  1
    r[49]     mccormick3[49]  -1
    r[50]     primal_upper  3.3
    r[50]     mccormick1[50]  1
    r[50]     mccormick2[50]  1
    r[50]     mccormick3[50]  -1
    r[51]     primal_upper  0.2
    r[51]     mccormick1[51]  1
    r[51]     mccormick2[51]  1
    r[51]     mccormick3[51]  -1
    r[52]     primal_upper  7.1
    r[52]     mccormick1[52]  1
    r[52]     mccormick2[52]  1
    r[52]     mccormick3[52]  -1
    r[53]     primal_upper  5.4
    r[53]     mccormick1[53]  1
    r[53]     mccormick2[53]  1
    r[53]     mccormick3[53]  -1
    r[54]     primal_upper  1.1
    r[54]     mccormick1[54]  1
    r[54]     mccormick2[54]  1
    r[54]     mccormick3[54]  -1
    r[55]     primal_upper  0.6
    r[55]     mccormick1[55]  1
    r[55]     mccormick2[55]  1
    r[55]     mccormick3[55]  -1
    r[56]     primal_upper  8.7
    r[56]     mccormick1[56]  1
    r[56]     mccormick2[56]  1
    r[56]     mccormick3[56]  -1
    r[57]     primal_upper  2.9
    r[57]     mccormick1[57]  1
    r[57]     mccormick2[57]  1
    r[57]     mccormick3[57]  -1
    r[58]     primal_upper  6.2
    r[58]     mccormick1[58]  1
    r[58]     mccormick2[58]  1
    r[58]     mccormick3[58]  -1
    r[59]     primal_upper  0.4
    r[59]     mccormick1[59]  1
    r[59]     mccormick2[59]  1
    r[59]     mccormick3[59]  -1
    MARKER    'MARKER'                 'INTEND'
RHS
    RHS1      primal_upper  286
    RHS1      primal_lower  43664
    RHS1      mccormick3[0]  1
    RHS1      mccormick3[1]  1
    RHS1      mccormick3[2]  1
    RHS1      mccormick3[3]  1
    RHS1      mccormick3[4]  1
    RHS1      mccormick3[5]  1
    RHS1      mccormick3[6]  1
    RHS1      mccormick3[7]  1
    RHS1      mccormick3[8]  1
    RHS1      mccormick3[9]  1
    RHS1      mccormick3[10]  1
    RHS1      mccormick3[11]  1
    RHS1      mccormick3[12]  1
    RHS1      mccormick3[13]  1
    RHS1      mccormick3[14]  1
    RHS1      mccormick3[15]  1
    RHS1      mccormick3[16]  1
    RHS1      mccormick3[17]  1
    RHS1      mccormick3[18]  1
    RHS1      mccormick3[19]  1
    RHS1      mccormick3[20]  1
    RHS1      mccormick3[21]  1
    RHS1      mccormick3[22]  1
    RHS1      mccormick3[23]  1
    RHS1      mccormick3[24]  1
    RHS1      mccormick3[25]  1
    RHS1      mccormick3[26]  1
    RHS1      mccormick3[27]  1
    RHS1      mccormick3[28]  1
    RHS1      mccormick3[29]  1
    RHS1      mccormick3[30]  1
    RHS1      mccormick3[31]  1
    RHS1      mccormick3[32]  1
    RHS1      mccormick3[33]  1
    RHS1      mccormick3[34]  1
    RHS1      mccormick3[35]  1
    RHS1      mccormick3[36]  1
    RHS1      mccormick3[37]  1
    RHS1      mccormick3[38]  1
    RHS1      mccormick3[39]  1
    RHS1      mccormick3[40]  1
    RHS1      mccormick3[41]  1
    RHS1      mccormick3[42]  1
    RHS1      mccormick3[43]  1
    RHS1      mccormick3[44]  1
    RHS1      mccormick3[45]  1
    RHS1      mccormick3[46]  1
    RHS1      mccormick3[47]  1
    RHS1      mccormick3[48]  1
    RHS1      mccormick3[49]  1
    RHS1      mccormick3[50]  1
    RHS1      mccormick3[51]  1
    RHS1      mccormick3[52]  1
    RHS1      mccormick3[53]  1
    RHS1      mccormick3[54]  1
    RHS1      mccormick3[55]  1
    RHS1      mccormick3[56]  1
    RHS1      mccormick3[57]  1
    RHS1      mccormick3[58]  1
    RHS1      mccormick3[59]  1
BOUNDS
 BV BND1      x[0]    
 BV BND1      x[1]    
 BV BND1      x[2]    
 BV BND1      x[3]    
 BV BND1      x[4]    
 BV BND1      x[5]    
 BV BND1      x[6]    
 BV BND1      x[7]    
 BV BND1      x[8]    
 BV BND1      x[9]    
 BV BND1      x[10]   
 BV BND1      x[11]   
 BV BND1      x[12]   
 BV BND1      x[13]   
 BV BND1      x[14]   
 BV BND1      x[15]   
 BV BND1      x[16]   
 BV BND1      x[17]   
 BV BND1      x[18]   
 BV BND1      x[19]   
 BV BND1      x[20]   
 BV BND1      x[21]   
 BV BND1      x[22]   
 BV BND1      x[23]   
 BV BND1      x[24]   
 BV BND1      x[25]   
 BV BND1      x[26]   
 BV BND1      x[27]   
 BV BND1      x[28]   
 BV BND1      x[29]   
 BV BND1      x[30]   
 BV BND1      x[31]   
 BV BND1      x[32]   
 BV BND1      x[33]   
 BV BND1      x[34]   
 BV BND1      x[35]   
 BV BND1      x[36]   
 BV BND1      x[37]   
 BV BND1      x[38]   
 BV BND1      x[39]   
 BV BND1      x[40]   
 BV BND1      x[41]   
 BV BND1      x[42]   
 BV BND1      x[43]   
 BV BND1      x[44]   
 BV BND1      x[45]   
 BV BND1      x[46]   
 BV BND1      x[47]   
 BV BND1      x[48]   
 BV BND1      x[49]   
 BV BND1      x[50]   
 BV BND1      x[51]   
 BV BND1      x[52]   
 BV BND1      x[53]   
 BV BND1      x[54]   
 BV BND1      x[55]   
 BV BND1      x[56]   
 BV BND1      x[57]   
 BV BND1      x[58]   
 BV BND1      x[59]   
 BV BND1      u[0]    
 BV BND1      u[1]    
 BV BND1      u[2]    
 BV BND1      u[3]    
 BV BND1      u[4]    
 BV BND1      u[5]    
 BV BND1      u[6]    
 BV BND1      u[7]    
 BV BND1      u[8]    
 BV BND1      u[9]    
 BV BND1      u[10]   
 BV BND1      u[11]   
 BV BND1      u[12]   
 BV BND1      u[13]   
 BV BND1      u[14]   
 BV BND1      u[15]   
 BV BND1      u[16]   
 BV BND1      u[17]   
 BV BND1      u[18]   
 BV BND1      u[19]   
 BV BND1      u[20]   
 BV BND1      u[21]   
 BV BND1      u[22]   
 BV BND1      u[23]   
 BV BND1      u[24]   
 BV BND1      u[25]   
 BV BND1      u[26]   
 BV BND1      u[27]   
 BV BND1      u[28]   
 BV BND1      u[29]   
 BV BND1      u[30]   
 BV BND1      u[31]   
 BV BND1      u[32]   
 BV BND1      u[33]   
 BV BND1      u[34]   
 BV BND1      u[35]   
 BV BND1      u[36]   
 BV BND1      u[37]   
 BV BND1      u[38]   
 BV BND1      u[39]   
 BV BND1      u[40]   
 BV BND1      u[41]   
 BV BND1      u[42]   
 BV BND1      u[43]   
 BV BND1      u[44]   
 BV BND1      u[45]   
 BV BND1      u[46]   
 BV BND1      u[47]   
 BV BND1      u[48]   
 BV BND1      u[49]   
 BV BND1      u[50]   
 BV BND1      u[51]   
 BV BND1      u[52]   
 BV BND1      u[53]   
 BV BND1      u[54]   
 BV BND1      u[55]   
 BV BND1      u[56]   
 BV BND1      u[57]   
 BV BND1      u[58]   
 BV BND1      u[59]   
 BV BND1      r[0]    
 BV BND1      r[1]    
 BV BND1      r[2]    
 BV BND1      r[3]    
 BV BND1      r[4]    
 BV BND1      r[5]    
 BV BND1      r[6]    
 BV BND1      r[7]    
 BV BND1      r[8]    
 BV BND1      r[9]    
 BV BND1      r[10]   
 BV BND1      r[11]   
 BV BND1      r[12]   
 BV BND1      r[13]   
 BV BND1      r[14]   
 BV BND1      r[15]   
 BV BND1      r[16]   
 BV BND1      r[17]   
 BV BND1      r[18]   
 BV BND1      r[19]   
 BV BND1      r[20]   
 BV BND1      r[21]   
 BV BND1      r[22]   
 BV BND1      r[23]   
 BV BND1      r[24]   
 BV BND1      r[25]   
 BV BND1      r[26]   
 BV BND1      r[27]   
 BV BND1      r[28]   
 BV BND1      r[29]   
 BV BND1      r[30]   
 BV BND1      r[31]   
 BV BND1      r[32]   
 BV BND1      r[33]   
 BV BND1      r[34]   
 BV BND1      r[35]   
 BV BND1      r[36]   
 BV BND1      r[37]   
 BV BND1      r[38]   
 BV BND1      r[39]   
 BV BND1      r[40]   
 BV BND1      r[41]   
 BV BND1      r[42]   
 BV BND1      r[43]   
 BV BND1      r[44]   
 BV BND1      r[45]   
 BV BND1      r[46]   
 BV BND1      r[47]   
 BV BND1      r[48]   
 BV BND1      r[49]   
 BV BND1      r[50]   
 BV BND1      r[51]   
 BV BND1      r[52]   
 BV BND1      r[53]   
 BV BND1      r[54]   
 BV BND1      r[55]   
 BV BND1      r[56]   
 BV BND1      r[57]   
 BV BND1      r[58]   
 BV BND1      r[59]   
ENDATA
