instances/knapsack/discrete_knapsack_uncertainty/knapsack_60_18.kp
59198
60
286

26 2.6 76
46 4.6 5
32 3.2 90
93 9.3 74
86 8.6 36
100 10.0 75
39 3.9 48
78 7.8 74
59 5.9 57
92 9.2 13
86 8.6 53
57 5.7 45
78 7.8 97
54 5.4 28
27 2.7 45
35 3.5 34
63 6.3 64
62 6.2 48
71 7.1 49
88 8.8 100
3 0.3 92
94 9.4 77
42 4.2 94
45 4.5 54
3 0.3 95
14 1.4 89
44 4.4 74
46 4.6 90
84 8.4 12
53 5.3 31
4 0.4 59
30 3.0 54
42 4.2 38
23 2.3 81
74 7.4 42
27 2.7 23
58 5.8 31
15 1.5 97
50 5.0 37
37 3.7 6
17 1.7 66
88 8.8 40
72 7.2 8
100 10.0 1
85 8.5 25
25 2.5 49
64 6.4 87
84 8.4 31
49 4.9 87
6 0.6 32
33 3.3 33
2 0.2 25
71 7.1 53
54 5.4 55
11 1.1 62
6 0.6 20
87 8.7 97
29 2.9 98
62 6.2 82
4 0.4 29

43664
288

[2.0439047061984064 2.3503521016180557 4.062793114433515 3.353309404857629 3.7578347883861536 2.066578858205778 1.5929129213494848 2.6432783452534383 0.7894539125775145 0.5328469682158931 3.5005591689760034 4.783010228227177 2.1132188222848804 0.6240158474501409 1.523205764988583 3.429286396767487 3.8897644412483685 2.1024940327689037 4.080848013204763 3.1781619977400304 2.1430121136589775 0.6085845297179412 2.7608727118713694 1.2079484636058773 1.958465656557449 3.0589760409334175 2.796093799745924 4.397760501550784 3.039591871677554 3.4472425042710295 3.961889800795931 4.066603012327642 4.694065967310204 3.0453930500519255 1.4303744971868044 3.356826796605001 4.750082238070826 0.8939656905541605 2.744115445844819 1.8935305883299853 1.712642876054063 0.48092600056798174 0.8845460376257241 2.6328861244059163 3.9547302065032506 0.0810250492163858 1.5656774365845074 2.750669791019007 2.8055889325502097 3.5786500607257263 3.85424217656708 0.1207026862421145 4.2549715675332385 2.7582819191193435 1.3306536869177166 0.4112955687846231 3.274610616013504 1.9560908489876605 4.397196460743105 1.3031324807703546]

[47 23 49 34 59 73 68 71 36 33 83 62 23 11 28 48 80 23 64 45 48 43 75 38 32 11 77 71 9 34 49 47 11 68 75 100 47 76 79 70 50 1 81 57 50 66 57 89 38 31 42 51 56 47 12 27 80 90 83 1]
